GRAPH IS : 
0 0 0 0 0 0 0 0 0 0 0 0 0 0 0 0 0 0 0 0 0 0 0 0 0 0 0 0 0 0 0 0 0 0 0 0 0 0 0 0 0 0 0 0 0 0 0 0 0 0 0 0 0 0 0 0 0 0 0 0 0 0 0 0 0 0 0 0 0 0 0 0 0 0 0 0 0 0 0 0 
0 0 0 0 0 0 0 0 0 0 0 0 0 0 1 0 0 0 0 0 0 0 0 0 0 0 0 0 0 0 0 0 0 0 0 0 0 0 0 0 0 0 0 0 0 0 0 0 0 0 0 0 0 0 0 0 0 0 0 0 0 0 0 0 0 0 0 0 0 0 0 0 0 0 0 0 0 0 0 0 
0 0 0 0 0 0 0 0 0 0 0 0 0 0 1 0 0 0 0 0 0 0 0 0 0 0 0 0 0 0 0 0 0 0 0 0 0 1 0 0 0 0 0 0 0 0 0 0 0 0 0 0 0 0 0 0 0 0 0 0 0 0 0 0 0 0 0 0 0 0 0 0 0 0 0 1 0 0 0 0 
0 0 0 0 0 1 0 0 0 0 0 0 0 0 0 0 0 0 0 0 0 0 0 0 0 1 0 1 1 0 0 0 0 1 0 0 0 1 0 0 1 0 0 0 1 0 1 0 0 0 0 0 0 0 1 0 0 1 0 0 1 0 0 1 0 0 0 0 0 1 0 0 0 1 0 0 0 0 0 0 
0 0 0 0 0 0 0 1 0 1 0 0 0 0 0 0 0 0 0 1 0 0 0 0 0 0 0 0 0 0 0 0 0 0 1 0 0 0 0 0 0 0 0 0 0 0 0 1 0 0 1 0 0 0 0 0 0 0 0 0 0 0 0 0 0 0 1 0 1 0 0 0 1 0 0 0 0 0 0 1 
0 0 0 1 0 0 0 0 0 0 1 0 0 0 0 0 0 1 0 0 1 0 1 0 0 0 0 0 1 0 0 0 0 0 0 0 0 1 0 1 0 0 0 0 0 0 0 0 0 0 0 0 0 0 0 0 0 0 0 0 0 0 0 0 0 0 0 0 0 0 0 0 0 0 0 0 0 0 0 0 
0 0 0 0 0 0 0 0 0 0 0 0 0 0 0 0 1 0 0 0 0 0 0 0 0 0 0 0 1 0 0 0 0 0 0 1 0 1 0 0 0 0 0 0 0 0 0 0 1 0 0 0 0 0 0 1 0 1 1 0 0 0 0 0 0 0 0 0 0 0 0 0 1 0 0 0 0 0 0 0 
0 0 0 0 1 0 0 0 0 1 0 0 0 0 0 1 0 0 0 1 0 0 0 0 0 0 0 0 0 0 0 0 0 0 1 0 0 0 1 0 0 0 0 0 0 0 0 1 0 0 1 0 0 0 0 0 0 0 0 0 0 0 0 0 0 0 1 0 1 0 0 0 1 0 0 0 0 0 0 1 
0 0 0 0 0 0 0 0 0 0 0 0 0 0 0 0 0 0 0 0 0 0 0 0 0 0 0 0 0 0 0 0 0 0 0 0 0 0 0 0 0 0 0 0 0 0 0 0 0 0 0 0 0 0 0 0 1 0 0 0 0 0 0 0 0 0 0 0 0 0 0 0 1 0 0 0 0 0 0 0 
0 0 0 0 1 0 0 1 0 0 0 0 0 0 0 1 0 0 0 1 0 0 0 0 0 0 0 0 1 0 0 0 0 0 1 1 0 1 1 0 0 0 0 0 0 0 0 1 0 0 1 0 0 0 0 0 0 0 0 0 0 0 0 0 0 0 1 0 1 0 0 0 1 0 0 0 0 0 0 1 
0 0 0 0 0 1 0 0 0 0 0 0 0 0 0 0 0 1 0 0 1 0 1 0 0 0 0 0 0 0 0 0 0 0 0 0 0 1 0 1 0 0 0 0 0 0 0 0 0 0 0 0 0 0 0 0 0 0 0 0 0 0 0 0 0 0 0 0 0 0 0 0 0 0 0 0 0 0 0 0 
0 0 0 0 0 0 0 0 0 0 0 0 0 0 0 0 0 0 0 0 0 0 0 0 0 0 0 0 0 0 0 0 0 0 0 0 0 0 0 0 0 0 1 0 0 0 0 0 0 0 0 0 0 0 0 0 0 0 0 0 0 0 0 0 0 0 0 0 0 0 0 0 1 0 0 0 0 0 0 0 
0 0 0 0 0 0 0 0 0 0 0 0 0 0 1 0 0 0 0 0 0 0 0 0 0 0 0 0 0 0 0 0 0 0 0 0 0 0 0 0 0 0 0 0 0 0 0 0 0 0 0 0 0 0 0 0 0 0 0 0 0 0 0 0 0 0 0 0 0 0 0 0 0 0 0 0 0 0 0 0 
0 0 0 0 0 0 0 0 0 0 0 0 0 0 0 0 0 0 0 0 0 0 0 0 0 0 0 0 0 0 0 0 0 0 0 0 0 0 0 0 0 0 0 1 0 0 0 0 0 0 0 0 0 0 0 0 0 0 0 0 0 0 0 0 0 0 0 0 0 0 0 0 0 0 0 0 0 0 0 0 
0 1 1 0 0 0 0 0 0 0 0 0 1 0 0 0 0 0 0 0 0 0 0 0 1 0 0 0 0 0 0 0 1 0 0 0 0 1 0 0 0 1 0 0 0 0 0 0 0 0 0 0 0 0 0 0 0 0 0 0 0 0 0 0 0 1 0 0 0 0 0 0 0 0 0 1 0 0 0 0 
0 0 0 0 0 0 0 1 0 1 0 0 0 0 0 0 0 0 0 1 0 0 0 1 0 0 1 0 0 1 0 0 0 1 1 0 0 1 1 0 0 0 0 0 0 0 0 0 1 0 0 0 0 0 0 0 0 1 0 1 0 0 0 0 0 0 1 0 1 0 0 0 1 0 0 0 1 1 0 1 
0 0 0 0 0 0 1 0 0 0 0 0 0 0 0 0 0 0 0 0 0 0 0 0 0 0 0 0 0 0 0 0 0 0 0 1 0 0 0 0 0 0 0 0 0 0 0 0 1 0 0 0 0 0 0 1 0 1 1 0 0 0 0 0 0 0 0 0 0 0 0 0 1 0 0 0 0 0 0 0 
0 0 0 0 0 1 0 0 0 0 1 0 0 0 0 0 0 0 0 0 1 0 1 0 0 0 0 0 0 0 0 0 0 0 0 0 0 1 0 1 0 0 0 0 0 0 0 0 0 0 0 0 0 0 0 0 0 0 0 0 0 0 0 0 0 0 0 0 0 0 0 0 0 0 0 0 0 0 0 0 
0 0 0 0 0 0 0 0 0 0 0 0 0 0 0 0 0 0 0 0 0 0 0 0 0 0 0 0 0 0 0 0 0 0 0 0 0 0 0 0 0 0 0 0 1 0 0 0 1 0 0 0 0 0 0 0 0 1 0 0 0 0 0 0 0 0 0 0 0 0 0 0 0 0 0 0 0 0 0 0 
0 0 0 0 1 0 0 1 0 1 0 0 0 0 0 1 0 0 0 0 0 0 0 0 0 0 0 0 0 0 0 0 0 0 1 0 0 0 1 0 0 0 0 0 0 0 0 1 0 0 1 0 0 0 0 0 0 0 0 0 0 0 0 0 0 0 1 0 1 0 0 0 1 0 0 0 0 0 0 1 
0 0 0 0 0 1 0 0 0 0 1 0 0 0 0 0 0 1 0 0 0 0 1 0 0 0 0 0 0 0 0 0 0 0 0 0 0 1 0 1 0 0 0 0 0 0 0 0 0 0 0 0 0 0 0 0 0 0 0 0 0 0 0 0 0 0 0 0 0 0 0 0 0 0 0 0 0 0 0 0 
0 0 0 0 0 0 0 0 0 0 0 0 0 0 0 0 0 0 0 0 0 0 0 0 0 0 0 0 0 0 0 0 0 0 0 0 0 0 0 0 0 0 0 0 0 0 0 0 0 0 0 0 0 0 0 0 0 0 0 0 0 0 0 0 0 0 0 0 0 0 0 0 0 0 0 0 0 0 0 0 
0 0 0 0 0 1 0 0 0 0 1 0 0 0 0 0 0 1 0 0 1 0 0 0 0 0 0 0 0 0 0 0 0 0 0 0 0 1 0 1 0 0 0 0 0 0 0 0 0 0 0 0 0 0 0 0 0 0 0 0 0 0 0 0 0 0 0 0 0 0 0 0 0 0 0 0 0 0 0 0 
0 0 0 0 0 0 0 0 0 0 0 0 0 0 0 1 0 0 0 0 0 0 0 0 0 0 0 0 0 0 0 0 0 0 0 0 0 0 0 0 0 0 0 0 0 0 0 0 0 0 0 0 0 0 0 0 0 0 0 0 0 0 0 0 0 0 0 0 0 0 0 0 0 0 0 0 0 1 0 0 
0 0 0 0 0 0 0 0 0 0 0 0 0 0 1 0 0 0 0 0 0 0 0 0 0 0 0 0 0 0 0 0 0 0 0 0 0 0 0 0 0 0 0 0 0 0 0 0 0 0 0 0 0 0 0 0 0 0 0 0 0 0 0 0 0 0 0 0 0 0 0 0 0 0 0 0 0 0 0 0 
0 0 0 1 0 0 0 0 0 0 0 0 0 0 0 0 0 0 0 0 0 0 0 0 0 0 0 1 0 0 0 0 0 1 0 0 0 0 0 0 1 0 0 0 0 0 0 0 0 0 0 0 0 0 0 0 0 0 0 0 0 0 0 1 0 0 0 0 0 1 0 0 0 1 0 0 0 0 0 0 
0 0 0 0 0 0 0 0 0 0 0 0 0 0 0 1 0 0 0 0 0 0 0 0 0 0 0 0 0 1 0 0 0 0 0 0 0 0 0 0 0 0 0 0 0 0 0 0 0 0 0 0 0 0 0 0 0 0 0 1 0 0 0 0 0 0 0 0 0 0 0 0 0 0 0 0 0 1 0 0 
0 0 0 1 0 0 0 0 0 0 0 0 0 0 0 0 0 0 0 0 0 0 0 0 0 1 0 0 0 0 0 0 0 1 0 0 0 0 0 0 1 0 0 0 0 0 0 0 0 0 0 0 0 0 0 0 0 0 0 0 0 0 0 1 0 0 0 0 0 1 0 0 0 1 0 0 0 0 0 0 
0 0 0 1 0 1 1 0 0 1 0 0 0 0 0 0 0 0 0 0 0 0 0 0 0 0 0 0 0 0 1 1 0 0 0 1 0 1 0 0 0 0 0 1 1 0 1 0 0 0 0 0 0 0 0 1 0 1 1 1 0 0 0 0 1 0 0 0 0 0 0 0 1 0 0 0 0 0 0 0 
0 0 0 0 0 0 0 0 0 0 0 0 0 0 0 1 0 0 0 0 0 0 0 0 0 0 1 0 0 0 0 0 0 0 0 0 1 1 0 0 0 0 0 0 0 1 0 0 0 0 0 0 0 0 0 0 0 0 0 1 0 0 0 0 0 0 0 0 0 0 0 0 0 0 0 0 0 1 0 0 
0 0 0 0 0 0 0 0 0 0 0 0 0 0 0 0 0 0 0 0 0 0 0 0 0 0 0 0 1 0 0 0 0 0 0 0 0 1 0 0 0 0 0 0 0 0 0 0 0 0 0 0 0 0 0 0 0 0 0 1 0 0 0 0 0 0 0 0 0 0 0 0 0 0 0 0 0 0 0 0 
0 0 0 0 0 0 0 0 0 0 0 0 0 0 0 0 0 0 0 0 0 0 0 0 0 0 0 0 1 0 0 0 0 0 0 0 0 1 0 0 0 0 0 0 0 0 0 0 0 0 0 0 0 0 0 0 0 0 0 0 0 0 0 0 0 0 0 0 0 0 0 0 0 0 0 0 0 0 0 0 
0 0 0 0 0 0 0 0 0 0 0 0 0 0 1 0 0 0 0 0 0 0 0 0 0 0 0 0 0 0 0 0 0 0 0 0 0 0 0 0 0 0 0 0 0 0 0 0 0 0 0 0 0 0 0 0 0 0 0 0 0 0 0 0 0 0 0 0 0 0 0 0 0 0 0 0 0 0 0 0 
0 0 0 1 0 0 0 0 0 0 0 0 0 0 0 1 0 0 0 0 0 0 0 0 0 1 0 1 0 0 0 0 0 0 0 0 0 0 0 0 1 0 0 0 0 0 0 0 0 0 0 0 0 0 0 0 0 0 0 1 0 0 0 1 0 0 0 0 0 1 0 0 0 1 0 0 0 0 0 0 
0 0 0 0 1 0 0 1 0 1 0 0 0 0 0 1 0 0 0 1 0 0 0 0 0 0 0 0 0 0 0 0 0 0 0 0 0 0 1 0 0 0 0 0 0 0 0 1 1 0 1 0 0 0 0 0 0 0 0 0 0 0 0 0 0 0 1 0 1 0 0 0 1 0 0 0 0 0 0 1 
0 0 0 0 0 0 1 0 0 1 0 0 0 0 0 0 1 0 0 0 0 0 0 0 0 0 0 0 1 0 0 0 0 0 0 0 0 1 0 0 0 0 0 0 1 0 0 0 1 0 0 0 0 0 0 1 0 1 1 0 0 0 0 0 0 0 0 0 0 0 0 0 0 0 0 0 0 0 0 0 
0 0 0 0 0 0 0 0 0 0 0 0 0 0 0 0 0 0 0 0 0 0 0 0 0 0 0 0 0 1 0 0 0 0 0 0 0 0 0 0 0 0 0 0 0 0 0 0 0 0 0 0 0 0 0 0 0 0 0 0 0 0 0 0 0 0 0 0 0 0 0 0 0 0 0 0 0 0 0 0 
0 0 1 1 0 1 1 0 0 1 1 0 0 0 1 1 0 1 0 0 1 0 1 0 0 0 0 0 1 1 1 1 0 0 0 1 0 0 0 1 0 0 0 1 1 0 1 0 0 0 0 0 0 1 0 1 0 1 1 1 1 1 1 0 1 0 1 1 0 0 1 0 1 0 0 1 0 1 1 0 
0 0 0 0 0 0 0 1 0 1 0 0 0 0 0 1 0 0 0 1 0 0 0 0 0 0 0 0 0 0 0 0 0 0 1 0 0 0 0 0 0 0 0 0 0 0 0 0 1 0 0 0 1 0 0 0 0 0 0 0 0 0 0 0 0 0 1 0 1 0 0 0 1 0 0 0 0 0 0 1 
0 0 0 0 0 1 0 0 0 0 1 0 0 0 0 0 0 1 0 0 1 0 1 0 0 0 0 0 0 0 0 0 0 0 0 0 0 1 0 0 0 0 0 0 0 0 0 0 0 0 0 0 0 0 0 0 0 0 0 0 0 0 0 0 0 0 0 0 0 0 0 0 0 0 0 0 0 0 0 0 
0 0 0 1 0 0 0 0 0 0 0 0 0 0 0 0 0 0 0 0 0 0 0 0 0 1 0 1 0 0 0 0 0 1 0 0 0 0 0 0 0 0 0 0 0 0 0 0 0 0 0 0 0 0 0 0 0 0 0 0 0 0 0 1 0 0 0 0 0 1 0 0 0 1 0 0 0 0 0 0 
0 0 0 0 0 0 0 0 0 0 0 0 0 0 1 0 0 0 0 0 0 0 0 0 0 0 0 0 0 0 0 0 0 0 0 0 0 0 0 0 0 0 0 0 0 0 0 0 0 0 0 0 0 0 0 0 0 0 0 0 0 0 0 0 0 0 0 0 0 0 0 0 0 0 0 0 0 0 0 0 
0 0 0 0 0 0 0 0 0 0 0 1 0 0 0 0 0 0 0 0 0 0 0 0 0 0 0 0 0 0 0 0 0 0 0 0 0 0 0 0 0 0 0 0 0 0 0 0 0 0 0 0 0 0 0 0 0 0 0 0 0 0 0 0 0 0 0 0 0 0 0 0 1 0 0 0 0 0 0 0 
0 0 0 0 0 0 0 0 0 0 0 0 0 1 0 0 0 0 0 0 0 0 0 0 0 0 0 0 1 0 0 0 0 0 0 0 0 1 0 0 0 0 0 0 0 0 0 0 0 0 0 0 0 0 0 0 0 0 0 0 0 0 0 0 0 0 0 0 0 0 0 0 0 0 0 0 0 0 1 0 
0 0 0 1 0 0 0 0 0 0 0 0 0 0 0 0 0 0 1 0 0 0 0 0 0 0 0 0 1 0 0 0 0 0 0 1 0 1 0 0 0 0 0 0 0 0 0 0 1 0 0 0 0 0 0 1 0 1 1 1 0 0 0 0 0 0 0 0 0 0 0 0 0 0 1 0 0 0 0 0 
0 0 0 0 0 0 0 0 0 0 0 0 0 0 0 0 0 0 0 0 0 0 0 0 0 0 0 0 0 1 0 0 0 0 0 0 0 0 0 0 0 0 0 0 0 0 0 0 0 0 0 0 0 0 0 0 0 0 0 0 0 0 0 0 0 0 0 0 0 0 0 0 0 0 0 0 1 0 0 0 
0 0 0 1 0 0 0 0 0 0 0 0 0 0 0 0 0 0 0 0 0 0 0 0 0 0 0 0 1 0 0 0 0 0 0 0 0 1 0 0 0 0 0 0 0 0 0 0 0 0 0 0 0 0 1 0 0 0 0 0 0 0 0 0 0 0 0 0 0 0 0 0 0 0 0 0 0 0 0 0 
0 0 0 0 1 0 0 1 0 1 0 0 0 0 0 0 0 0 0 1 0 0 0 0 0 0 0 0 0 0 0 0 0 0 1 0 0 0 0 0 0 0 0 0 0 0 0 0 0 0 0 0 0 0 0 0 0 0 0 0 0 0 0 0 0 0 1 0 0 0 0 0 1 0 0 0 0 0 0 0 
0 0 0 0 0 0 1 0 0 0 0 0 0 0 0 1 1 0 1 0 0 0 0 0 0 0 0 0 0 0 0 0 0 0 1 1 0 0 1 0 0 0 0 0 1 0 0 0 0 0 0 0 0 0 0 1 0 1 1 0 0 0 0 0 0 0 0 0 0 0 0 0 0 0 0 0 0 0 0 0 
0 0 0 0 0 0 0 0 0 0 0 0 0 0 0 0 0 0 0 0 0 0 0 0 0 0 0 0 0 0 0 0 0 0 0 0 0 0 0 0 0 0 0 0 0 0 0 0 0 0 0 0 0 0 0 0 0 0 0 0 0 0 0 0 0 0 0 0 0 0 0 0 0 0 0 0 0 0 0 0 
0 0 0 0 1 0 0 1 0 1 0 0 0 0 0 0 0 0 0 1 0 0 0 0 0 0 0 0 0 0 0 0 0 0 1 0 0 0 0 0 0 0 0 0 0 0 0 0 0 0 0 0 0 0 0 0 0 0 0 0 0 0 0 0 0 0 1 0 1 0 0 0 1 0 0 0 0 0 0 1 
0 0 0 0 0 0 0 0 0 0 0 0 0 0 0 0 0 0 0 0 0 0 0 0 0 0 0 0 0 0 0 0 0 0 0 0 0 0 0 0 0 0 0 0 0 0 0 0 0 0 0 0 0 0 0 0 0 1 0 0 0 0 0 0 0 0 0 0 0 0 0 0 0 0 0 0 0 0 0 0 
0 0 0 0 0 0 0 0 0 0 0 0 0 0 0 0 0 0 0 0 0 0 0 0 0 0 0 0 0 0 0 0 0 0 0 0 0 0 1 0 0 0 0 0 0 0 0 0 0 0 0 0 0 0 0 0 0 0 0 0 0 0 0 0 0 0 0 0 0 0 0 0 0 0 0 0 0 0 0 0 
0 0 0 0 0 0 0 0 0 0 0 0 0 0 0 0 0 0 0 0 0 0 0 0 0 0 0 0 0 0 0 0 0 0 0 0 0 1 0 0 0 0 0 0 0 0 0 0 0 0 0 0 0 0 0 0 0 0 0 0 0 0 0 0 0 0 0 0 0 0 0 0 0 0 0 0 0 0 0 0 
0 0 0 1 0 0 0 0 0 0 0 0 0 0 0 0 0 0 0 0 0 0 0 0 0 0 0 0 0 0 0 0 0 0 0 0 0 0 0 0 0 0 0 0 0 0 1 0 0 0 0 0 0 0 0 0 0 0 0 0 0 0 0 0 0 0 0 0 0 0 0 0 0 0 0 0 0 0 0 0 
0 0 0 0 0 0 1 0 0 0 0 0 0 0 0 0 1 0 0 0 0 0 0 0 0 0 0 0 1 0 0 0 0 0 0 1 0 1 0 0 0 0 0 0 1 0 0 0 1 0 0 0 0 0 0 0 0 1 1 0 0 0 0 0 0 0 0 0 0 0 0 0 1 0 0 0 0 0 0 0 
0 0 0 0 0 0 0 0 1 0 0 0 0 0 0 0 0 0 0 0 0 0 0 0 0 0 0 0 0 0 0 0 0 0 0 0 0 0 0 0 0 0 0 0 0 0 0 0 0 0 0 0 0 0 0 0 0 0 0 0 0 0 0 0 0 0 0 0 0 0 0 0 0 0 0 0 0 0 0 0 
0 0 0 1 0 0 1 0 0 0 0 0 0 0 0 1 1 0 1 0 0 0 0 0 0 0 0 0 1 0 0 0 0 0 0 1 0 1 0 0 0 0 0 0 1 0 0 0 1 0 0 1 0 0 0 1 0 0 1 1 0 0 0 0 0 0 0 0 0 0 0 0 1 0 0 0 1 0 0 0 
0 0 0 0 0 0 1 0 0 0 0 0 0 0 0 0 1 0 0 0 0 0 0 0 0 0 0 0 1 0 0 0 0 0 0 1 0 1 0 0 0 0 0 0 1 0 0 0 1 0 0 0 0 0 0 1 0 1 0 0 0 0 0 0 0 0 0 0 0 0 0 0 1 0 0 0 0 0 0 0 
0 0 0 0 0 0 0 0 0 0 0 0 0 0 0 1 0 0 0 0 0 0 0 0 0 0 1 0 1 1 1 0 0 1 0 0 0 1 0 0 0 0 0 0 1 0 0 0 0 0 0 0 0 0 0 0 0 1 0 0 0 0 0 0 1 0 0 0 0 0 0 0 0 0 0 0 0 1 0 0 
0 0 0 1 0 0 0 0 0 0 0 0 0 0 0 0 0 0 0 0 0 0 0 0 0 0 0 0 0 0 0 0 0 0 0 0 0 1 0 0 0 0 0 0 0 0 0 0 0 0 0 0 0 0 0 0 0 0 0 0 0 0 0 0 0 0 0 0 0 0 0 0 0 0 0 0 0 0 0 0 
0 0 0 0 0 0 0 0 0 0 0 0 0 0 0 0 0 0 0 0 0 0 0 0 0 0 0 0 0 0 0 0 0 0 0 0 0 1 0 0 0 0 0 0 0 0 0 0 0 0 0 0 0 0 0 0 0 0 0 0 0 0 0 0 0 0 0 0 0 0 0 0 0 0 0 0 0 0 0 0 
0 0 0 0 0 0 0 0 0 0 0 0 0 0 0 0 0 0 0 0 0 0 0 0 0 0 0 0 0 0 0 0 0 0 0 0 0 1 0 0 0 0 0 0 0 0 0 0 0 0 0 0 0 0 0 0 0 0 0 0 0 0 0 0 0 0 0 0 0 0 0 0 0 0 0 0 0 0 0 0 
0 0 0 1 0 0 0 0 0 0 0 0 0 0 0 0 0 0 0 0 0 0 0 0 0 1 0 1 0 0 0 0 0 1 0 0 0 0 0 0 1 0 0 0 0 0 0 0 0 0 0 0 0 0 0 0 0 0 0 0 0 0 0 0 0 0 0 0 0 1 0 0 0 1 0 0 0 0 0 0 
0 0 0 0 0 0 0 0 0 0 0 0 0 0 0 0 0 0 0 0 0 0 0 0 0 0 0 0 1 0 0 0 0 0 0 0 0 1 0 0 0 0 0 0 0 0 0 0 0 0 0 0 0 0 0 0 0 0 0 1 0 0 0 0 0 0 0 0 0 0 0 0 0 0 0 0 0 0 0 0 
0 0 0 0 0 0 0 0 0 0 0 0 0 0 1 0 0 0 0 0 0 0 0 0 0 0 0 0 0 0 0 0 0 0 0 0 0 0 0 0 0 0 0 0 0 0 0 0 0 0 0 0 0 0 0 0 0 0 0 0 0 0 0 0 0 0 0 0 0 0 0 0 0 0 0 0 0 0 0 0 
0 0 0 0 1 0 0 1 0 1 0 0 0 0 0 1 0 0 0 1 0 0 0 0 0 0 0 0 0 0 0 0 0 0 1 0 0 1 1 0 0 0 0 0 0 0 0 1 0 0 1 0 0 0 0 0 0 0 0 0 0 0 0 0 0 0 0 0 1 0 0 0 1 0 0 0 0 0 0 1 
0 0 0 0 0 0 0 0 0 0 0 0 0 0 0 0 0 0 0 0 0 0 0 0 0 0 0 0 0 0 0 0 0 0 0 0 0 1 0 0 0 0 0 0 0 0 0 0 0 0 0 0 0 0 0 0 0 0 0 0 0 0 0 0 0 0 0 0 0 0 0 0 0 0 0 0 0 0 0 0 
0 0 0 0 1 0 0 1 0 1 0 0 0 0 0 1 0 0 0 1 0 0 0 0 0 0 0 0 0 0 0 0 0 0 1 0 0 0 1 0 0 0 0 0 0 0 0 0 0 0 1 0 0 0 0 0 0 0 0 0 0 0 0 0 0 0 1 0 0 0 0 0 1 0 0 0 0 0 0 1 
0 0 0 1 0 0 0 0 0 0 0 0 0 0 0 0 0 0 0 0 0 0 0 0 0 1 0 1 0 0 0 0 0 1 0 0 0 0 0 0 1 0 0 0 0 0 0 0 0 0 0 0 0 0 0 0 0 0 0 0 0 0 0 1 0 0 0 0 0 0 0 0 0 1 0 0 0 0 0 0 
0 0 0 0 0 0 0 0 0 0 0 0 0 0 0 0 0 0 0 0 0 0 0 0 0 0 0 0 0 0 0 0 0 0 0 0 0 1 0 0 0 0 0 0 0 0 0 0 0 0 0 0 0 0 0 0 0 0 0 0 0 0 0 0 0 0 0 0 0 0 0 0 0 0 0 0 0 0 0 0 
0 0 0 0 0 0 0 0 0 0 0 0 0 0 0 0 0 0 0 0 0 0 0 0 0 0 0 0 0 0 0 0 0 0 0 0 0 0 0 0 0 0 0 0 0 0 0 0 0 0 0 0 0 0 0 0 0 0 0 0 0 0 0 0 0 0 0 0 0 0 0 0 0 0 0 0 0 0 0 0 
0 0 0 0 1 0 1 1 1 1 0 1 0 0 0 1 1 0 0 1 0 0 0 0 0 0 0 0 1 0 0 0 0 0 1 0 0 1 1 0 0 0 1 0 0 0 0 1 0 0 1 0 0 0 0 1 0 1 1 0 0 0 0 0 0 0 1 0 1 0 0 0 0 0 0 0 0 0 0 1 
0 0 0 1 0 0 0 0 0 0 0 0 0 0 0 0 0 0 0 0 0 0 0 0 0 1 0 1 0 0 0 0 0 1 0 0 0 0 0 0 1 0 0 0 0 0 0 0 0 0 0 0 0 0 0 0 0 0 0 0 0 0 0 1 0 0 0 0 0 1 0 0 0 0 0 0 0 0 0 0 
0 0 0 0 0 0 0 0 0 0 0 0 0 0 0 0 0 0 0 0 0 0 0 0 0 0 0 0 0 0 0 0 0 0 0 0 0 0 0 0 0 0 0 0 1 0 0 0 0 0 0 0 0 0 0 0 0 0 0 0 0 0 0 0 0 0 0 0 0 0 0 0 0 0 0 0 0 1 0 0 
0 0 1 0 0 0 0 0 0 0 0 0 0 0 1 0 0 0 0 0 0 0 0 0 0 0 0 0 0 0 0 0 0 0 0 0 0 1 0 0 0 0 0 0 0 0 0 0 0 0 0 0 0 0 0 0 0 0 0 0 0 0 0 0 0 0 0 0 0 0 0 0 0 0 0 0 0 0 0 0 
0 0 0 0 0 0 0 0 0 0 0 0 0 0 0 1 0 0 0 0 0 0 0 0 0 0 0 0 0 0 0 0 0 0 0 0 0 0 0 0 0 0 0 0 0 1 0 0 0 0 0 0 0 0 0 0 0 1 0 0 0 0 0 0 0 0 0 0 0 0 0 0 0 0 0 0 0 0 0 0 
0 0 0 0 0 0 0 0 0 0 0 0 0 0 0 1 0 0 0 0 0 0 0 1 0 0 1 0 0 1 0 0 0 0 0 0 0 1 0 0 0 0 0 0 0 0 0 0 0 0 0 0 0 0 0 0 0 0 0 1 0 0 0 0 0 0 0 0 0 0 0 0 0 0 1 0 0 0 0 0 
0 0 0 0 0 0 0 0 0 0 0 0 0 0 0 0 0 0 0 0 0 0 0 0 0 0 0 0 0 0 0 0 0 0 0 0 0 1 0 0 0 0 0 1 0 0 0 0 0 0 0 0 0 0 0 0 0 0 0 0 0 0 0 0 0 0 0 0 0 0 0 0 0 0 0 0 0 0 0 0 
0 0 0 0 1 0 0 1 0 1 0 0 0 0 0 1 0 0 0 1 0 0 0 0 0 0 0 0 0 0 0 0 0 0 1 0 0 0 1 0 0 0 0 0 0 0 0 0 0 0 1 0 0 0 0 0 0 0 0 0 0 0 0 0 0 0 1 0 1 0 0 0 1 0 0 0 0 0 0 0 




----------------------------

EPOCH: 0 MAX:  -40.625000000    AVG:  -45.118750000
EPOCH: 1 MAX:  -40.625000000    AVG:  -43.496875000
EPOCH: 2 MAX:  -40.000000000    AVG:  -42.668750000
EPOCH: 3 MAX:  -40.000000000    AVG:  -42.215625000
EPOCH: 4 MAX:  -37.500000000    AVG:  -41.787500000
EPOCH: 5 MAX:  -37.500000000    AVG:  -41.321875000
EPOCH: 6 MAX:  -37.500000000    AVG:  -40.987500000
EPOCH: 7 MAX:  -36.875000000    AVG:  -40.578125000
EPOCH: 8 MAX:  -36.875000000    AVG:  -40.078125000
EPOCH: 9 MAX:  -35.625000000    AVG:  -39.646875000
EPOCH: 10 MAX:  -35.625000000    AVG:  -39.143750000
EPOCH: 11 MAX:  -35.625000000    AVG:  -38.578125000
EPOCH: 12 MAX:  -35.625000000    AVG:  -38.081250000
EPOCH: 13 MAX:  -35.625000000    AVG:  -37.525000000
EPOCH: 14 MAX:  -33.750000000    AVG:  -37.140625000
EPOCH: 15 MAX:  -33.750000000    AVG:  -36.684375000
EPOCH: 16 MAX:  -32.500000000    AVG:  -36.068750000
EPOCH: 17 MAX:  -32.500000000    AVG:  -35.378125000
EPOCH: 18 MAX:  -31.875000000    AVG:  -34.759375000
EPOCH: 19 MAX:  -31.875000000    AVG:  -33.934375000
EPOCH: 20 MAX:  -31.875000000    AVG:  -32.950000000
EPOCH: 21 MAX:  -31.875000000    AVG:  -32.103125000
EPOCH: 22 MAX:  -31.875000000    AVG:  -31.875000000
EPOCH: 23 MAX:  -31.875000000    AVG:  -31.875000000
EPOCH: 24 MAX:  -31.250000000    AVG:  -31.865625000
EPOCH: 25 MAX:  -30.625000000    AVG:  -31.815625000
EPOCH: 26 MAX:  -30.625000000    AVG:  -31.725000000
EPOCH: 27 MAX:  -30.625000000    AVG:  -31.396875000
EPOCH: 28 MAX:  -30.625000000    AVG:  -30.921875000
EPOCH: 29 MAX:  -30.625000000    AVG:  -30.625000000
EPOCH: 30 MAX:  -30.625000000    AVG:  -30.625000000
EPOCH: 31 MAX:  -30.625000000    AVG:  -30.625000000
EPOCH: 32 MAX:  -30.625000000    AVG:  -30.625000000
EPOCH: 33 MAX:  -30.625000000    AVG:  -30.625000000
EPOCH: 34 MAX:  -30.625000000    AVG:  -30.625000000
EPOCH: 35 MAX:  -30.625000000    AVG:  -30.625000000
EPOCH: 36 MAX:  -30.625000000    AVG:  -30.625000000
EPOCH: 37 MAX:  -30.625000000    AVG:  -30.625000000
EPOCH: 38 MAX:  -30.625000000    AVG:  -30.625000000
EPOCH: 39 MAX:  -30.625000000    AVG:  -30.625000000
EPOCH: 40 MAX:  -30.625000000    AVG:  -30.625000000
EPOCH: 41 MAX:  -30.625000000    AVG:  -30.625000000
EPOCH: 42 MAX:  -30.000000000    AVG:  -30.621875000
EPOCH: 43 MAX:  -30.000000000    AVG:  -30.618750000
EPOCH: 44 MAX:  -30.000000000    AVG:  -30.565625000
EPOCH: 45 MAX:  -30.000000000    AVG:  -30.471875000
EPOCH: 46 MAX:  -30.000000000    AVG:  -30.246875000
EPOCH: 47 MAX:  -30.000000000    AVG:  -30.000000000
EPOCH: 48 MAX:  -30.000000000    AVG:  -30.000000000
EPOCH: 49 MAX:  -30.000000000    AVG:  -30.000000000
EPOCH: 50 MAX:  -30.000000000    AVG:  -30.000000000
EPOCH: 51 MAX:  -30.000000000    AVG:  -30.000000000
EPOCH: 52 MAX:  -30.000000000    AVG:  -30.000000000
EPOCH: 53 MAX:  -30.000000000    AVG:  -30.000000000
EPOCH: 54 MAX:  -30.000000000    AVG:  -30.000000000
EPOCH: 55 MAX:  -30.000000000    AVG:  -30.000000000
EPOCH: 56 MAX:  -30.000000000    AVG:  -30.000000000
EPOCH: 57 MAX:  -30.000000000    AVG:  -30.000000000
EPOCH: 58 MAX:  -30.000000000    AVG:  -30.000000000
EPOCH: 59 MAX:  -30.000000000    AVG:  -30.000000000
EPOCH: 60 MAX:  -30.000000000    AVG:  -30.000000000
EPOCH: 61 MAX:  -30.000000000    AVG:  -30.000000000
EPOCH: 62 MAX:  -30.000000000    AVG:  -30.000000000
EPOCH: 63 MAX:  -30.000000000    AVG:  -30.000000000
EPOCH: 64 MAX:  -30.000000000    AVG:  -30.000000000
EPOCH: 65 MAX:  -30.000000000    AVG:  -30.000000000
EPOCH: 66 MAX:  -30.000000000    AVG:  -30.000000000
EPOCH: 67 MAX:  -30.000000000    AVG:  -30.000000000
EPOCH: 68 MAX:  -30.000000000    AVG:  -30.000000000
EPOCH: 69 MAX:  -30.000000000    AVG:  -30.000000000
EPOCH: 70 MAX:  -30.000000000    AVG:  -30.000000000
EPOCH: 71 MAX:  -30.000000000    AVG:  -30.000000000
EPOCH: 72 MAX:  -30.000000000    AVG:  -30.000000000
EPOCH: 73 MAX:  -30.000000000    AVG:  -30.000000000
EPOCH: 74 MAX:  -30.000000000    AVG:  -30.000000000
EPOCH: 75 MAX:  -30.000000000    AVG:  -30.000000000
EPOCH: 76 MAX:  -30.000000000    AVG:  -30.000000000
EPOCH: 77 MAX:  -30.000000000    AVG:  -30.000000000
EPOCH: 78 MAX:  -30.000000000    AVG:  -30.000000000
EPOCH: 79 MAX:  -30.000000000    AVG:  -30.000000000
EPOCH: 80 MAX:  -30.000000000    AVG:  -30.000000000
EPOCH: 81 MAX:  -30.000000000    AVG:  -30.000000000
EPOCH: 82 MAX:  -30.000000000    AVG:  -30.000000000
EPOCH: 83 MAX:  -30.000000000    AVG:  -30.000000000
EPOCH: 84 MAX:  -30.000000000    AVG:  -30.000000000
EPOCH: 85 MAX:  -30.000000000    AVG:  -30.000000000
EPOCH: 86 MAX:  -30.000000000    AVG:  -30.000000000
EPOCH: 87 MAX:  -30.000000000    AVG:  -30.000000000
EPOCH: 88 MAX:  -30.000000000    AVG:  -30.000000000
EPOCH: 89 MAX:  -30.000000000    AVG:  -30.000000000
EPOCH: 90 MAX:  -30.000000000    AVG:  -30.000000000
EPOCH: 91 MAX:  -30.000000000    AVG:  -30.000000000
EPOCH: 92 MAX:  -30.000000000    AVG:  -30.000000000
EPOCH: 93 MAX:  -30.000000000    AVG:  -30.000000000
EPOCH: 94 MAX:  -30.000000000    AVG:  -30.000000000
EPOCH: 95 MAX:  -30.000000000    AVG:  -30.000000000
EPOCH: 96 MAX:  -30.000000000    AVG:  -30.000000000
EPOCH: 97 MAX:  -30.000000000    AVG:  -30.000000000
EPOCH: 98 MAX:  -30.000000000    AVG:  -30.000000000
EPOCH: 99 MAX:  -30.000000000    AVG:  -30.000000000
EPOCH: 100 MAX:  -30.000000000    AVG:  -30.000000000
EPOCH: 101 MAX:  -30.000000000    AVG:  -30.000000000
EPOCH: 102 MAX:  -30.000000000    AVG:  -30.000000000
EPOCH: 103 MAX:  -30.000000000    AVG:  -30.000000000
EPOCH: 104 MAX:  -30.000000000    AVG:  -30.000000000
HELPER:  ....
EPOCH: 105 MAX:  -30.000000000    AVG:  -30.000000000
EPOCH: 106 MAX:  -30.000000000    AVG:  -30.000000000
EPOCH: 107 MAX:  -30.000000000    AVG:  -30.000000000
EPOCH: 108 MAX:  -30.000000000    AVG:  -30.000000000
EPOCH: 109 MAX:  -30.000000000    AVG:  -30.000000000
EPOCH: 110 MAX:  -30.000000000    AVG:  -30.000000000
EPOCH: 111 MAX:  -30.000000000    AVG:  -30.000000000
EPOCH: 112 MAX:  -30.000000000    AVG:  -30.000000000
EPOCH: 113 MAX:  -30.000000000    AVG:  -30.000000000
EPOCH: 114 MAX:  -30.000000000    AVG:  -30.000000000
EPOCH: 115 MAX:  -30.000000000    AVG:  -30.000000000
EPOCH: 116 MAX:  -30.000000000    AVG:  -30.000000000
EPOCH: 117 MAX:  -30.000000000    AVG:  -30.000000000
EPOCH: 118 MAX:  -30.000000000    AVG:  -30.000000000
EPOCH: 119 MAX:  -30.000000000    AVG:  -30.000000000
EPOCH: 120 MAX:  -30.000000000    AVG:  -30.000000000
EPOCH: 121 MAX:  -30.000000000    AVG:  -30.000000000
EPOCH: 122 MAX:  -30.000000000    AVG:  -30.000000000
EPOCH: 123 MAX:  -30.000000000    AVG:  -30.000000000
EPOCH: 124 MAX:  -30.000000000    AVG:  -30.000000000
EPOCH: 125 MAX:  -30.000000000    AVG:  -30.000000000
EPOCH: 126 MAX:  -30.000000000    AVG:  -30.000000000
EPOCH: 127 MAX:  -30.000000000    AVG:  -30.000000000
EPOCH: 128 MAX:  -30.000000000    AVG:  -30.000000000
EPOCH: 129 MAX:  -30.000000000    AVG:  -30.000000000
EPOCH: 130 MAX:  -30.000000000    AVG:  -30.000000000
EPOCH: 131 MAX:  -30.000000000    AVG:  -30.000000000
EPOCH: 132 MAX:  -30.000000000    AVG:  -30.000000000
EPOCH: 133 MAX:  -30.000000000    AVG:  -30.000000000
EPOCH: 134 MAX:  -30.000000000    AVG:  -30.000000000
EPOCH: 135 MAX:  -30.000000000    AVG:  -30.000000000
EPOCH: 136 MAX:  -30.000000000    AVG:  -30.000000000
EPOCH: 137 MAX:  -30.000000000    AVG:  -30.000000000
EPOCH: 138 MAX:  -30.000000000    AVG:  -30.000000000
EPOCH: 139 MAX:  -30.000000000    AVG:  -30.000000000
EPOCH: 140 MAX:  -30.000000000    AVG:  -30.000000000
EPOCH: 141 MAX:  -30.000000000    AVG:  -30.000000000
EPOCH: 142 MAX:  -30.000000000    AVG:  -30.000000000
EPOCH: 143 MAX:  -30.000000000    AVG:  -30.000000000
EPOCH: 144 MAX:  -30.000000000    AVG:  -30.000000000
EPOCH: 145 MAX:  -30.000000000    AVG:  -30.000000000
EPOCH: 146 MAX:  -30.000000000    AVG:  -30.000000000
EPOCH: 147 MAX:  -30.000000000    AVG:  -30.000000000
EPOCH: 148 MAX:  -30.000000000    AVG:  -30.000000000
EPOCH: 149 MAX:  -30.000000000    AVG:  -30.000000000
EPOCH: 150 MAX:  -30.000000000    AVG:  -30.000000000
EPOCH: 151 MAX:  -30.000000000    AVG:  -30.000000000
EPOCH: 152 MAX:  -30.000000000    AVG:  -30.000000000
EPOCH: 153 MAX:  -30.000000000    AVG:  -30.000000000
EPOCH: 154 MAX:  -30.000000000    AVG:  -30.000000000
EPOCH: 155 MAX:  -30.000000000    AVG:  -30.000000000
EPOCH: 156 MAX:  -30.000000000    AVG:  -30.000000000
EPOCH: 157 MAX:  -30.000000000    AVG:  -30.000000000
EPOCH: 158 MAX:  -30.000000000    AVG:  -30.000000000
EPOCH: 159 MAX:  -30.000000000    AVG:  -30.000000000
EPOCH: 160 MAX:  -30.000000000    AVG:  -30.000000000
EPOCH: 161 MAX:  -30.000000000    AVG:  -30.000000000
EPOCH: 162 MAX:  -30.000000000    AVG:  -30.000000000
EPOCH: 163 MAX:  -30.000000000    AVG:  -30.000000000
EPOCH: 164 MAX:  -30.000000000    AVG:  -30.000000000
EPOCH: 165 MAX:  -30.000000000    AVG:  -30.000000000
EPOCH: 166 MAX:  -30.000000000    AVG:  -30.000000000
EPOCH: 167 MAX:  -30.000000000    AVG:  -30.000000000
EPOCH: 168 MAX:  -30.000000000    AVG:  -30.000000000
EPOCH: 169 MAX:  -30.000000000    AVG:  -30.000000000
EPOCH: 170 MAX:  -30.000000000    AVG:  -30.000000000
EPOCH: 171 MAX:  -30.000000000    AVG:  -30.000000000
EPOCH: 172 MAX:  -30.000000000    AVG:  -30.000000000
EPOCH: 173 MAX:  -30.000000000    AVG:  -30.000000000
EPOCH: 174 MAX:  -30.000000000    AVG:  -30.000000000
HELPER:  ....
EPOCH: 175 MAX:  -30.000000000    AVG:  -30.000000000
EPOCH: 176 MAX:  -30.000000000    AVG:  -30.000000000
EPOCH: 177 MAX:  -30.000000000    AVG:  -30.000000000
EPOCH: 178 MAX:  -30.000000000    AVG:  -30.000000000
EPOCH: 179 MAX:  -30.000000000    AVG:  -30.000000000
EPOCH: 180 MAX:  -30.000000000    AVG:  -30.000000000
EPOCH: 181 MAX:  -30.000000000    AVG:  -30.000000000
EPOCH: 182 MAX:  -30.000000000    AVG:  -30.000000000
EPOCH: 183 MAX:  -30.000000000    AVG:  -30.000000000
EPOCH: 184 MAX:  -30.000000000    AVG:  -30.000000000
EPOCH: 185 MAX:  -30.000000000    AVG:  -30.000000000
EPOCH: 186 MAX:  -30.000000000    AVG:  -30.000000000
EPOCH: 187 MAX:  -30.000000000    AVG:  -30.000000000
EPOCH: 188 MAX:  -30.000000000    AVG:  -30.000000000
EPOCH: 189 MAX:  -30.000000000    AVG:  -30.000000000
EPOCH: 190 MAX:  -30.000000000    AVG:  -30.000000000
EPOCH: 191 MAX:  -30.000000000    AVG:  -30.000000000
EPOCH: 192 MAX:  -30.000000000    AVG:  -30.000000000
EPOCH: 193 MAX:  -30.000000000    AVG:  -30.000000000
EPOCH: 194 MAX:  -30.000000000    AVG:  -30.000000000
EPOCH: 195 MAX:  -30.000000000    AVG:  -30.000000000
EPOCH: 196 MAX:  -30.000000000    AVG:  -30.000000000
EPOCH: 197 MAX:  -30.000000000    AVG:  -30.000000000
EPOCH: 198 MAX:  -30.000000000    AVG:  -30.000000000
EPOCH: 199 MAX:  -30.000000000    AVG:  -30.000000000
EPOCH: 200 MAX:  -30.000000000    AVG:  -30.000000000
EPOCH: 201 MAX:  -30.000000000    AVG:  -30.000000000
EPOCH: 202 MAX:  -30.000000000    AVG:  -30.000000000
EPOCH: 203 MAX:  -30.000000000    AVG:  -30.000000000
EPOCH: 204 MAX:  -30.000000000    AVG:  -30.000000000
EPOCH: 205 MAX:  -30.000000000    AVG:  -30.000000000
EPOCH: 206 MAX:  -30.000000000    AVG:  -30.000000000
EPOCH: 207 MAX:  -30.000000000    AVG:  -30.000000000
EPOCH: 208 MAX:  -30.000000000    AVG:  -30.000000000
EPOCH: 209 MAX:  -30.000000000    AVG:  -30.000000000
EPOCH: 210 MAX:  -30.000000000    AVG:  -30.000000000
EPOCH: 211 MAX:  -30.000000000    AVG:  -30.000000000
EPOCH: 212 MAX:  -30.000000000    AVG:  -30.000000000
EPOCH: 213 MAX:  -30.000000000    AVG:  -30.000000000
EPOCH: 214 MAX:  -30.000000000    AVG:  -30.000000000
EPOCH: 215 MAX:  -30.000000000    AVG:  -30.000000000
EPOCH: 216 MAX:  -30.000000000    AVG:  -30.000000000
EPOCH: 217 MAX:  -30.000000000    AVG:  -30.000000000
EPOCH: 218 MAX:  -30.000000000    AVG:  -30.000000000
EPOCH: 219 MAX:  -30.000000000    AVG:  -30.000000000
EPOCH: 220 MAX:  -30.000000000    AVG:  -30.000000000
EPOCH: 221 MAX:  -30.000000000    AVG:  -30.000000000
EPOCH: 222 MAX:  -30.000000000    AVG:  -30.000000000
EPOCH: 223 MAX:  -30.000000000    AVG:  -30.000000000
EPOCH: 224 MAX:  -30.000000000    AVG:  -30.000000000
EPOCH: 225 MAX:  -30.000000000    AVG:  -30.000000000
EPOCH: 226 MAX:  -30.000000000    AVG:  -30.000000000
EPOCH: 227 MAX:  -30.000000000    AVG:  -30.000000000
EPOCH: 228 MAX:  -30.000000000    AVG:  -30.000000000
EPOCH: 229 MAX:  -30.000000000    AVG:  -30.000000000
EPOCH: 230 MAX:  -30.000000000    AVG:  -30.000000000
EPOCH: 231 MAX:  -30.000000000    AVG:  -30.000000000
EPOCH: 232 MAX:  -30.000000000    AVG:  -30.000000000
EPOCH: 233 MAX:  -30.000000000    AVG:  -30.000000000
EPOCH: 234 MAX:  -30.000000000    AVG:  -30.000000000
EPOCH: 235 MAX:  -30.000000000    AVG:  -30.000000000
EPOCH: 236 MAX:  -30.000000000    AVG:  -30.000000000
EPOCH: 237 MAX:  -30.000000000    AVG:  -30.000000000
EPOCH: 238 MAX:  -30.000000000    AVG:  -30.000000000
EPOCH: 239 MAX:  -30.000000000    AVG:  -30.000000000
EPOCH: 240 MAX:  -30.000000000    AVG:  -30.000000000
EPOCH: 241 MAX:  -30.000000000    AVG:  -30.000000000
EPOCH: 242 MAX:  -30.000000000    AVG:  -30.000000000
EPOCH: 243 MAX:  -30.000000000    AVG:  -30.000000000
EPOCH: 244 MAX:  -30.000000000    AVG:  -30.000000000
HELPER:  ....
---------------------------
CH: 0 1.000000000
CH: 1 1.000000000
CH: 2 1.000000000
CH: 3 1.000000000
CH: 4 129.000000000
CH: 5 348.000000000
CH: 6 182.000000000
CH: 7 266.000000000
CH: 8 275.000000000
CH: 9 122.000000000
CH: 10 266.000000000
CH: 11 289.000000000
CH: 12 197.000000000
CH: 13 61.000000000
CH: 14 257.000000000
CH: 15 300.000000000
CH: 16 55.000000000
CH: 17 399.000000000
CH: 18 1.000000000
CH: 19 397.000000000
CH: 20 58.000000000
CH: 21 300.000000000
CH: 22 395.000000000
CH: 23 150.000000000
CH: 24 289.000000000
CH: 25 29.000000000
CH: 26 383.000000000
CH: 27 252.000000000
CH: 28 394.000000000
CH: 29 131.000000000
CH: 30 204.000000000
CH: 31 30.000000000
CH: 32 273.000000000
CH: 33 374.000000000
CH: 34 197.000000000
CH: 35 66.000000000
CH: 36 344.000000000
CH: 37 252.000000000
CH: 38 130.000000000
CH: 39 76.000000000
CH: 40 207.000000000
CH: 41 225.000000000
CH: 42 159.000000000
CH: 43 347.000000000
CH: 44 397.000000000
CH: 45 71.000000000
CH: 46 197.000000000
CH: 47 109.000000000
CH: 48 273.000000000
CH: 49 66.000000000
CH: 50 97.000000000
CH: 51 123.000000000
CH: 52 93.000000000
CH: 53 123.000000000
CH: 54 131.000000000
CH: 55 311.000000000
CH: 56 110.000000000
CH: 57 197.000000000
CH: 58 30.000000000
CH: 59 398.000000000
CH: 60 395.000000000
CH: 61 374.000000000
CH: 62 61.000000000
CH: 63 394.000000000
CH: 64 199.000000000
CH: 65 30.000000000
CH: 66 368.000000000
CH: 67 182.000000000
CH: 68 207.000000000
CH: 69 21.000000000
CH: 70 397.000000000
CH: 71 235.000000000
CH: 72 150.000000000
CH: 73 267.000000000
CH: 74 199.000000000
CH: 75 355.000000000
CH: 76 1.000000000
CH: 77 1.000000000
CH: 78 1.000000000
CH: 79 1.000000000





END ------------------------
ERROR: 0.000000000
NUM OF COLORS USED = 49
